p cnf 81 81
129
134
171
183
357
366
392
428
451
523
532
642
686
755
774
868
897
936
943
964
998
117
226
196
927
212
876
746
793
556
767
416
841
261
162
253
145
158
654
548
678
514
824
447
473
663
637
722
482
972
494
852
959
321
625
731
611
439
465
718
915
981
789
699
591
569
819
833
885
313
295
587
575
379
335
238
277
249
344
388
284
